Instance name: rc2_2_10
Authors: Miroslaw Blocho Zbigniew J. Czech
Date: 
Reference: 
Solution
Route 1 : 142 4 92 182 57 195 31 52 32 38 108 56 45 85 165 112 109 189 125 128 177 65 168 99 94 151 160 192 53 101 74 23 117 114 86 55 129 106 70 41 158 194 107 81 50 157 33 66 82 154
Route 2 : 150 28 163 187 130 171 6 132 78 162 63 149 42 172 197 5 62 26 181 122 77 35 164 104 25 10 170 20 159 46 138 186 135 96 79 120 73 93 146 19 193 141 185 2 76 34 175
Route 3 : 140 54 89 100 37 12 59 143 173 188 29 139 21 166 9 155 88 105 118 127 199 84 176 69 191 113 58 134 174 17 87 121 115 144 11 71 123 137 13 75 8 60 1 97 30 64 67
Route 4 : 153 49 14 47 200 103 124 43 180 3 136 48 131 24 156 102 15 179 7 68 18 183 196 184 190 167 152 169 72 161 119 98 16 40 133 147 22 61 198 91 111 145 51 27 126 80 110 178 90 44 116 95 83 148 36 39